NAME : tsp35_21.186.tour
COMMENT : Length = 186
COMMENT : Found by LKH [Keld Helsgaun]
TYPE : TOUR
DIMENSION : 35
TOUR_SECTION
1
12
24
35
15
33
19
32
20
29
17
4
21
7
28
30
8
27
10
5
9
22
2
6
14
25
3
13
11
18
16
34
26
23
31
-1
EOF
